
Log started (V11.0.0) Wed May 14 15:23:20 2008

Tried aggregator 1 time.
Reduced MIP has 130 rows, 3001 columns, and 6030 nonzeros.
Presolve time =    0.02 sec.
Clique table members: 100.
MIP emphasis: balance optimality and feasibility.
MIP search method: dynamic search.
Parallel mode: none, using 1 thread.
Root relaxation solution time =    0.09 sec.

        Nodes                                         Cuts/
   Node  Left     Objective  IInf  Best Integer     Best Node    ItCnt     Gap

*     0+    0                        10879.0000      121.8882      395   98.88%
*     0+    0                          203.0000      121.8882      395   39.96%
      0     0      122.9971    59      203.0000      Fract: 7      422   39.41%
*     0+    0                          179.0000      122.9971      422   31.29%
      0     0      128.4229    58      179.0000   MIRcuts: 22      799   28.26%
*     0+    0                          177.0000      128.4229      799   27.44%
      0     0      128.7744    64      177.0000      Cuts: 13      884   27.25%
      0     0      128.9894    68      177.0000      Cuts: 10      912   27.12%
*     0+    0                          168.0000      128.9894      912   23.22%
      0     0      128.9894    75      168.0000       Cuts: 7      923   23.22%
*     0+    0                          167.0000      128.9894      923   22.76%
      0     0      128.9894    73      167.0000       Cuts: 3      928   22.76%
*     0+    0                          162.0000      128.9894      928   20.38%
*     0+    0                          161.0000      128.9894      928   19.88%
*     0+    0                          157.0000      128.9894      928   17.84%
*     0+    0                          144.0000      128.9894      928   10.42%
      0     2      128.9894    73      144.0000      128.9894      928   10.42%
    100    85      130.0000    42      144.0000      129.0013     3293   10.42%
    200   157      131.0000    31      144.0000      129.0013     5943   10.42%
    300   223      132.0000    31      144.0000      129.0013     8324   10.42%
    400   299      135.6296    31      144.0000      129.0013     9630   10.42%
*   491+  234                          143.0000      140.6834    11972    1.62%

Cover cuts applied:  26
Flow cuts applied:  1
Mixed integer rounding cuts applied:  8
Zero-half cuts applied:  2
Gomory fractional cuts applied:  1

Solution pool: 12 solutions saved.

MIP - Integer optimal solution:  Objective = 1.4200000000e+002
Solution time =    6.72 sec.  Iterations = 11974  Nodes = 491 (234)


Incumbent solution
Variable Name           Solution Value
Cmax                        142.000000
X_1_8                         1.000000
X_2_8                         1.000000
X_3_14                        1.000000
X_4_20                        1.000000
X_5_20                        1.000000
X_6_7                         1.000000
X_7_20                        1.000000
X_8_20                        1.000000
X_9_21                        1.000000
X_10_21                       1.000000
X_11_12                       1.000000
X_12_4                        1.000000
X_13_12                       1.000000
X_14_18                       1.000000
X_15_16                       1.000000
X_16_26                       1.000000
X_17_21                       1.000000
X_18_1                        1.000000
X_19_26                       1.000000
X_20_11                       1.000000
X_21_20                       1.000000
X_22_20                       1.000000
X_23_24                       1.000000
X_24_10                       1.000000
X_25_24                       1.000000
X_26_26                       1.000000
X_27_20                       1.000000
X_28_26                       1.000000
X_29_22                       1.000000
X_30_1                        1.000000
X_31_22                       1.000000
X_32_8                        1.000000
X_33_26                       1.000000
X_34_7                        1.000000
X_35_12                       1.000000
X_36_3                        1.000000
X_37_12                       1.000000
X_38_6                        1.000000
X_39_18                       1.000000
X_40_21                       1.000000
X_41_18                       1.000000
X_42_20                       1.000000
X_43_20                       1.000000
X_44_11                       1.000000
X_45_7                        1.000000
X_46_20                       1.000000
X_47_1                        1.000000
X_48_20                       1.000000
X_49_29                       1.000000
X_50_28                       1.000000
X_51_16                       1.000000
X_52_25                       1.000000
X_53_15                       1.000000
X_54_21                       1.000000
X_55_20                       1.000000
X_56_2                        1.000000
X_57_21                       1.000000
X_58_20                       1.000000
X_59_11                       1.000000
X_60_7                        1.000000
X_61_11                       1.000000
X_62_27                       1.000000
X_63_19                       1.000000
X_64_20                       1.000000
X_65_26                       1.000000
X_66_22                       1.000000
X_67_12                       1.000000
X_68_4                        1.000000
X_69_21                       1.000000
X_70_7                        1.000000
X_71_14                       1.000000
X_72_19                       1.000000
X_73_13                       1.000000
X_74_20                       1.000000
X_75_26                       1.000000
X_76_27                       1.000000
X_77_11                       1.000000
X_78_13                       1.000000
X_79_5                        1.000000
X_80_13                       1.000000
X_81_30                       1.000000
X_82_20                       1.000000
X_83_21                       1.000000
X_84_17                       1.000000
X_85_8                        1.000000
X_86_12                       1.000000
X_87_18                       1.000000
X_88_20                       1.000000
X_89_18                       1.000000
X_90_21                       1.000000
X_91_21                       1.000000
X_92_23                       1.000000
X_93_20                       1.000000
X_94_3                        1.000000
X_95_9                        1.000000
X_96_13                       1.000000
X_97_26                       1.000000
X_98_17                       1.000000
X_99_8                        1.000000
X_100_21                      1.000000
All other variables in the range 1-3001 are 0.
